==> PRESOLVE             = 0
==> OUTPUTLOG            = 1
==> MUTEXCALLBACKS       = 0
FICO Xpress v8.13.3, Hyper, solve started 22:59:40, Jun 20, 2022
Heap usage: 569KB (peak 569KB, 1628KB system)
Minimizing MILP xprs_265534c3270 using up to 12 threads, with these control settings:
PRESOLVE = 0
OUTPUTLOG = 1
MUTEXCALLBACKS = 0
Original problem has:
      2588 rows         1098 cols         8586 elements      1098 globals

Coefficient range                    original                 solved        
  Coefficients   [min,max] : [ 1.00e+00,  1.00e+01] / [ 1.25e-01,  1.25e+00]
  RHS and bounds [min,max] : [ 1.00e+00,  5.10e+01] / [ 1.00e+00,  6.38e+00]
  Objective      [min,max] : [ 2.00e+00,  1.02e+02] / [ 2.00e+00,  1.02e+02]
Autoscaling applied standard scaling

Will try to keep branch and bound tree memory usage below 9.5GB
 *** Solution found:   729.710067   Time:   0    Heuristic: e ***
Starting concurrent solve with dual (1 thread), primal (1 thread) and barrier (10 threads)

                           Concurrent-Solve,   0s
            Dual                      Primal                     Barrier      
    objective   dual inf                                                      
 D  367.20596   .0000000 |                          |                         
------- optimal -------- | ----- interrupted ------ | ----- interrupted ------
Concurrent statistics:
      Dual: 581 simplex iterations, 0.02s
    Primal: 496 simplex iterations, 0.02s
   Barrier: 0 barrier and 0 simplex iterations, 0.05s
            Barrier used 10 threads 6 cores, L1\L2 cache: 32K\9216K
            Barrier used AVX support
Optimal solution found
 
   Its         Obj Value      S   Ninf  Nneg   Sum Dual Inf  Time
   581        367.205958      D      0     0        .000000     0
Dual solved problem
  581 simplex iterations in 0.06 seconds at time 0

Final objective                       : 3.672059579214315e+02
  Max primal violation      (abs/rel) :       0.0 /       0.0
  Max dual violation        (abs/rel) : 8.882e-16 / 8.882e-16
  Max complementarity viol. (abs/rel) :       0.0 /       0.0

Starting root cutting & heuristics
 
 Its Type    BestSoln    BestBound   Sols    Add    Del     Gap     GInf   Time
R          610.962249   429.512565      2                 29.70%       0      0
R          583.416212   429.512565      3                 26.38%       0      0
R          568.531768   429.512565      4                 24.45%       0      0
   1  K    568.531768   429.512565      4    212      0   24.45%      67      0
b          528.389898   444.573086      5                 15.86%       0      0
   2  K    528.389898   444.573086      5    129    124   15.86%      42      0
   3  K    528.389898   450.965588      5    184     89   14.65%      90      0
   4  K    528.389898   457.357625      5     74    159   13.44%      96      0
   5  K    528.389898   465.080967      5     98     79   11.98%     110      0
   6  K    528.389898   473.485602      5    102     75   10.39%      83      0
   7  K    528.389898   494.563323      5    100     81    6.40%      96      0
   8  K    528.389898   510.089556      5    242    119    3.46%     108      0
   9  K    528.389898   516.126813      5     34     64    2.32%      67      0
R          524.581409   517.554665      6                  1.34%       0      0
  10  K    524.581409   517.554665      6     19     58    1.34%      72      0
  11  K    524.581409   519.388960      6     19      2    0.99%      22      0
  12  K    524.581409   523.997713      6     14     42    0.11%      57      0
 *** Search completed ***
Final MIP objective                   : 5.245814092890027e+02
Final MIP bound                       : 5.245810420830448e+02
  Solution time / primaldual integral :         0s/ 32.251353%
  Number of solutions found / nodes   :         6 /         1
  Max primal violation      (abs/rel) :       0.0 /       0.0
  Max integer violation     (abs    ) :       0.0
